Minimize
  - 5 y_0 - 5 y_1 - 5 y_2 - 5 y_3 - 5 y_4 - 2 y_5 - 5 y_6 - 3 y_7 - y_8
   - 5 y_9 - 4 y_10 - 6 y_11 - 4 y_12 - 6 y_13 - 6 y_14 - 6 y_15 - 3 y_16
   - 4 y_17 - 3 y_18 - 6 y_19 - 5 y_20 - 4 y_21 - 2 y_22 - 4 y_23 - 5 y_24
   - y_25 - 6 y_26 - 3 y_27 - 4 y_28 - 5 y_29 - 6 y_30 - 4 y_31 - 2 y_32
   - 5 y_33 - 4 y_34 - y_35 - 5 y_36 - 6 y_37 - 2 y_38 - 4 y_39 - 4 y_40
   - 3 y_41 - 6 y_42 - 5 y_44 - y_45 - 5 y_46 - 2 y_47 - 4 y_48 - 5 y_49
   - 3 y_50 - 2 y_51 - 3 y_52 - 3 y_53 - y_54 - 4 y_55 - 5 y_56 - 3 y_57
   - 5 y_58 - 6 y_59 - 5 y_60 - 3 y_61 - 5 y_62 - 5 y_63 - 5 y_65 - 4 y_66
   - 5 y_67 - 5 y_68 - 4 y_69 - 5 y_70 - 4 y_71 - 5 y_72 - 2 y_73 - 3 y_74
   - 5 y_75 - 6 y_76 - y_77 - 6 y_78 - 4 y_79 - 5 y_80 - 4 y_81 - 3 y_82
   - 2 y_83 - 6 y_84 - y_85 - 4 y_86 - 3 y_88 - 2 y_89 - 3 y_90 - 5 y_91
   - 4 y_92 - y_93 - 6 y_94 - 3 y_95 - 5 y_96 - 3 y_97 - 5 y_98 - 2 y_99
   + 386 Constant
Subject To
 c_0: y_76 = 1
 c_1_0: y_0 + y_2 + y_20 + y_44 + y_68 + y_79 + y_98 >= 1
 c_1_1: y_1 + y_6 + y_9 + y_11 + y_14 + y_17 + y_37 + y_39 + y_40 + y_42
   + y_56 + y_59 + y_60 + y_62 + y_69 + y_76 >= 1
 c_1_2: y_0 + y_2 + y_19 + y_26 + y_33 + y_44 + y_63 + y_68 + y_74 + y_79
   + y_98 >= 1
 c_1_3: y_3 + y_4 + y_16 + y_23 + y_34 + y_39 + y_46 + y_57 + y_66 + y_96
   >= 1
 c_1_4: y_3 + y_4 + y_18 + y_23 + y_34 + y_46 + y_57 + y_66 + y_91 + y_96
   >= 1
 c_1_5: y_5 + y_8 + y_10 + y_18 + y_38 + y_43 + y_45 + y_51 + y_54 + y_73
   + y_77 + y_87 + y_88 + y_89 + y_90 + y_93 >= 1
 c_1_6: y_1 + y_6 + y_9 + y_11 + y_14 + y_17 + y_23 + y_37 + y_39 + y_40
   + y_42 + y_56 + y_59 + y_60 + y_62 + y_69 + y_76 + y_82 >= 1
 c_1_7: y_7 + y_28 + y_38 + y_65 + y_67 + y_86 + y_88 + y_90 + y_92 + y_93
   + y_95 >= 1
 c_1_8: y_5 + y_8 + y_16 + y_18 + y_25 + y_38 + y_43 + y_45 + y_51 + y_57
   + y_64 + y_73 + y_77 + y_87 + y_88 + y_89 + y_93 >= 1
 c_1_9: y_1 + y_6 + y_9 + y_11 + y_14 + y_17 + y_37 + y_39 + y_40 + y_42
   + y_56 + y_59 + y_60 + y_62 + y_69 + y_70 + y_72 + y_76 + y_81 + y_82
   >= 1
 c_1_10: y_5 + y_10 + y_18 + y_38 + y_46 + y_66 + y_67 + y_88 + y_89 + y_90
   + y_91 >= 1
 c_1_11: y_1 + y_6 + y_9 + y_11 + y_14 + y_17 + y_37 + y_39 + y_40 + y_42
   + y_56 + y_59 + y_60 + y_76 >= 1
 c_1_12: y_12 + y_27 + y_29 + y_31 + y_36 + y_48 + y_49 + y_50 + y_55
   + y_58 + y_61 + y_71 >= 1
 c_1_13: y_13 + y_30 + y_67 + y_78 >= 1
 c_1_14: y_1 + y_6 + y_9 + y_11 + y_14 + y_37 + y_40 + y_42 + y_56 + y_59
   + y_60 + y_76 >= 1
 c_1_15: y_15 + y_24 + y_31 + y_36 + y_48 + y_49 + y_58 + y_84 + y_94 >= 1
 c_1_16: y_3 + y_8 + y_16 + y_18 + y_23 + y_34 + y_39 + y_51 + y_57 + y_73
   + y_89 + y_96 >= 1
 c_1_17: y_1 + y_6 + y_9 + y_11 + y_17 + y_37 + y_39 + y_40 + y_41 + y_42
   + y_56 + y_60 + y_62 + y_69 + y_70 + y_72 + y_76 + y_81 + y_82 >= 1
 c_1_18: y_4 + y_5 + y_8 + y_10 + y_16 + y_18 + y_34 + y_46 + y_51 + y_57
   + y_66 + y_73 + y_89 + y_91 + y_96 >= 1
 c_1_19: y_2 + y_19 + y_26 + y_33 + y_44 + y_63 >= 1
 c_1_20: y_0 + y_20 + y_44 + y_68 + y_97 + y_98 >= 1
 c_1_21: y_21 + y_24 + y_52 + y_53 + y_75 >= 1
 c_1_22: y_22 + y_25 + y_32 + y_41 + y_43 + y_47 + y_52 + y_53 + y_64
   + y_77 + y_87 >= 1
 c_1_23: y_3 + y_4 + y_6 + y_16 + y_23 + y_34 + y_39 + y_40 + y_57 + y_60
   + y_96 >= 1
 c_1_24: y_15 + y_21 + y_24 + y_31 + y_36 + y_48 + y_53 + y_94 >= 1
 c_1_25: y_8 + y_22 + y_25 + y_32 + y_41 + y_43 + y_47 + y_51 + y_52 + y_64
   + y_77 + y_85 + y_87 >= 1
 c_1_26: y_2 + y_19 + y_26 + y_33 + y_44 + y_63 + y_98 >= 1
 c_1_27: y_12 + y_27 + y_29 + y_31 + y_47 + y_48 + y_50 + y_55 + y_61
   + y_71 + y_83 + y_97 + y_99 >= 1
 c_1_28: y_7 + y_28 + y_65 + y_80 + y_86 + y_92 + y_95 >= 1
 c_1_29: y_12 + y_27 + y_29 + y_31 + y_36 + y_48 + y_49 + y_50 + y_55
   + y_58 + y_71 + y_84 >= 1
 c_1_30: y_13 + y_30 + y_67 + y_78 >= 1
 c_1_31: y_12 + y_15 + y_24 + y_27 + y_29 + y_31 + y_36 + y_48 + y_49
   + y_50 + y_55 + y_58 + y_71 + y_84 + y_94 >= 1
 c_1_32: y_22 + y_25 + y_32 + y_41 + y_52 + y_53 + y_64 + y_77 + y_81
   + y_82 >= 1
 c_1_33: y_2 + y_19 + y_26 + y_33 + y_44 + y_63 + y_79 + y_86 + y_98 >= 1
 c_1_34: y_3 + y_4 + y_16 + y_18 + y_23 + y_34 + y_39 + y_46 + y_57 + y_66
   + y_96 >= 1
 c_1_35: y_35 + y_43 + y_45 + y_47 + y_54 + y_64 + y_74 + y_83 + y_85
   + y_87 + y_93 + y_99 >= 1
 c_1_36: y_12 + y_15 + y_24 + y_29 + y_31 + y_36 + y_48 + y_49 + y_50
   + y_55 + y_58 + y_71 + y_84 + y_94 >= 1
 c_1_37: y_1 + y_6 + y_9 + y_11 + y_14 + y_17 + y_37 + y_40 + y_42 + y_56
   + y_59 + y_60 + y_62 + y_69 + y_70 + y_72 + y_76 >= 1
 c_1_38: y_5 + y_7 + y_8 + y_10 + y_38 + y_43 + y_45 + y_51 + y_54 + y_73
   + y_87 + y_88 + y_89 + y_90 + y_93 + y_95 >= 1
 c_1_39: y_1 + y_3 + y_6 + y_9 + y_11 + y_16 + y_17 + y_23 + y_34 + y_39
   + y_40 + y_56 + y_57 + y_60 + y_69 + y_76 + y_96 >= 1
 c_1_40: y_1 + y_6 + y_9 + y_11 + y_14 + y_17 + y_23 + y_37 + y_39 + y_40
   + y_42 + y_56 + y_59 + y_60 + y_62 + y_69 + y_70 + y_72 + y_76 + y_81
   + y_82 >= 1
 c_1_41: y_17 + y_22 + y_25 + y_32 + y_41 + y_52 + y_53 + y_69 + y_72
   + y_77 + y_81 + y_82 >= 1
 c_1_42: y_1 + y_6 + y_9 + y_11 + y_14 + y_17 + y_37 + y_40 + y_42 + y_56
   + y_59 + y_60 + y_62 + y_69 + y_70 + y_76 >= 1
 c_1_43: y_5 + y_8 + y_22 + y_25 + y_35 + y_38 + y_43 + y_45 + y_47 + y_51
   + y_54 + y_64 + y_73 + y_77 + y_83 + y_85 + y_87 + y_93 >= 1
 c_1_44: y_0 + y_2 + y_19 + y_20 + y_26 + y_33 + y_44 + y_63 + y_68 + y_79
   + y_98 >= 1
 c_1_45: y_5 + y_8 + y_35 + y_38 + y_43 + y_45 + y_51 + y_54 + y_64 + y_73
   + y_77 + y_87 + y_88 + y_89 + y_90 + y_93 >= 1
 c_1_46: y_3 + y_4 + y_10 + y_18 + y_34 + y_46 + y_66 + y_91 + y_96 >= 1
 c_1_47: y_22 + y_25 + y_27 + y_35 + y_43 + y_47 + y_50 + y_61 + y_64
   + y_74 + y_83 + y_85 + y_87 + y_97 + y_99 >= 1
 c_1_48: y_12 + y_15 + y_24 + y_27 + y_29 + y_31 + y_36 + y_48 + y_50
   + y_52 + y_55 + y_71 + y_94 >= 1
 c_1_49: y_12 + y_15 + y_29 + y_31 + y_36 + y_49 + y_55 + y_58 + y_71
   + y_84 >= 1
 c_1_50: y_12 + y_27 + y_29 + y_31 + y_36 + y_47 + y_48 + y_50 + y_55
   + y_61 + y_71 + y_83 + y_97 + y_99 >= 1
 c_1_51: y_5 + y_8 + y_16 + y_18 + y_25 + y_38 + y_43 + y_45 + y_51 + y_57
   + y_64 + y_73 + y_77 + y_87 + y_88 + y_89 + y_93 >= 1
 c_1_52: y_21 + y_22 + y_25 + y_32 + y_41 + y_48 + y_52 + y_53 + y_75
   + y_81 >= 1
 c_1_53: y_21 + y_22 + y_24 + y_32 + y_41 + y_52 + y_53 + y_75 + y_81 >= 1
 c_1_54: y_5 + y_35 + y_38 + y_43 + y_45 + y_54 + y_64 + y_85 + y_87 + y_93
   + y_95 >= 1
 c_1_55: y_12 + y_27 + y_29 + y_31 + y_36 + y_48 + y_49 + y_50 + y_55
   + y_58 + y_61 + y_71 + y_84 >= 1
 c_1_56: y_1 + y_6 + y_9 + y_11 + y_14 + y_17 + y_37 + y_39 + y_40 + y_42
   + y_56 + y_59 + y_60 + y_62 + y_69 + y_70 + y_72 + y_76 + y_82 >= 1
 c_1_57: y_3 + y_4 + y_8 + y_16 + y_18 + y_23 + y_34 + y_39 + y_51 + y_57
   + y_66 + y_73 + y_89 + y_96 >= 1
 c_1_58: y_12 + y_15 + y_29 + y_31 + y_36 + y_49 + y_55 + y_58 + y_71
   + y_84 >= 1
 c_1_59: y_1 + y_6 + y_9 + y_11 + y_14 + y_37 + y_40 + y_42 + y_56 + y_59
   + y_60 + y_76 >= 1
 c_1_60: y_1 + y_6 + y_9 + y_11 + y_14 + y_17 + y_23 + y_37 + y_39 + y_40
   + y_42 + y_56 + y_59 + y_60 + y_62 + y_69 + y_76 + y_82 >= 1
 c_1_61: y_12 + y_27 + y_47 + y_50 + y_55 + y_61 + y_71 + y_74 + y_83
   + y_85 + y_97 + y_99 >= 1
 c_1_62: y_1 + y_6 + y_9 + y_17 + y_37 + y_40 + y_42 + y_56 + y_60 + y_62
   + y_69 + y_70 + y_72 + y_81 + y_82 >= 1
 c_1_63: y_2 + y_19 + y_26 + y_33 + y_44 + y_63 + y_79 + y_86 >= 1
 c_1_64: y_8 + y_22 + y_25 + y_32 + y_35 + y_43 + y_45 + y_47 + y_51 + y_54
   + y_64 + y_77 + y_83 + y_85 + y_87 + y_93 >= 1
 c_1_65: y_7 + y_28 + y_65 + y_80 + y_92 >= 1
 c_1_66: y_3 + y_4 + y_10 + y_18 + y_34 + y_46 + y_57 + y_66 + y_89 + y_91
   + y_96 >= 1
 c_1_67: y_7 + y_10 + y_13 + y_30 + y_67 + y_78 + y_88 + y_90 >= 1
 c_1_68: y_0 + y_2 + y_20 + y_44 + y_68 + y_74 + y_79 + y_97 + y_98 >= 1
 c_1_69: y_1 + y_6 + y_9 + y_17 + y_37 + y_39 + y_40 + y_41 + y_42 + y_56
   + y_60 + y_62 + y_69 + y_70 + y_72 + y_81 + y_82 >= 1
 c_1_70: y_9 + y_17 + y_37 + y_40 + y_42 + y_56 + y_62 + y_69 + y_70 + y_72
   + y_75 + y_81 + y_82 >= 1
 c_1_71: y_12 + y_27 + y_29 + y_31 + y_36 + y_48 + y_49 + y_50 + y_55
   + y_58 + y_61 + y_71 >= 1
 c_1_72: y_9 + y_17 + y_37 + y_40 + y_41 + y_56 + y_62 + y_69 + y_70 + y_72
   + y_75 + y_81 + y_82 >= 1
 c_1_73: y_5 + y_8 + y_16 + y_18 + y_38 + y_43 + y_45 + y_51 + y_57 + y_73
   + y_77 + y_87 + y_89 >= 1
 c_1_74: y_2 + y_35 + y_47 + y_61 + y_68 + y_74 + y_79 + y_83 + y_85 + y_97
   + y_99 >= 1
 c_1_75: y_21 + y_52 + y_53 + y_70 + y_72 + y_75 + y_81 + y_82 >= 1
 c_1_76: y_1 + y_6 + y_9 + y_11 + y_14 + y_17 + y_37 + y_39 + y_40 + y_42
   + y_56 + y_59 + y_60 + y_76 >= 1
 c_1_77: y_5 + y_8 + y_22 + y_25 + y_32 + y_41 + y_43 + y_45 + y_51 + y_64
   + y_73 + y_77 + y_87 + y_89 + y_93 >= 1
 c_1_78: y_13 + y_30 + y_67 + y_78 >= 1
 c_1_79: y_0 + y_2 + y_33 + y_44 + y_63 + y_68 + y_74 + y_79 + y_97 + y_98
   >= 1
 c_1_80: y_28 + y_65 + y_80 + y_86 + y_92 >= 1
 c_1_81: y_9 + y_17 + y_32 + y_40 + y_41 + y_52 + y_53 + y_62 + y_69 + y_70
   + y_72 + y_75 + y_81 + y_82 >= 1
 c_1_82: y_6 + y_9 + y_17 + y_32 + y_40 + y_41 + y_56 + y_60 + y_62 + y_69
   + y_70 + y_72 + y_75 + y_81 + y_82 >= 1
 c_1_83: y_27 + y_35 + y_43 + y_47 + y_50 + y_61 + y_64 + y_74 + y_83
   + y_85 + y_97 + y_99 >= 1
 c_1_84: y_15 + y_29 + y_31 + y_36 + y_49 + y_55 + y_58 + y_84 + y_94 >= 1
 c_1_85: y_25 + y_35 + y_43 + y_47 + y_54 + y_61 + y_64 + y_74 + y_83
   + y_85 + y_87 + y_93 + y_99 >= 1
 c_1_86: y_7 + y_28 + y_33 + y_63 + y_80 + y_86 + y_92 + y_95 >= 1
 c_1_87: y_5 + y_8 + y_22 + y_25 + y_35 + y_38 + y_43 + y_45 + y_47 + y_51
   + y_54 + y_64 + y_73 + y_77 + y_85 + y_87 + y_93 >= 1
 c_1_88: y_5 + y_7 + y_8 + y_10 + y_38 + y_45 + y_51 + y_67 + y_88 + y_89
   + y_90 + y_93 + y_95 >= 1
 c_1_89: y_5 + y_8 + y_10 + y_16 + y_18 + y_38 + y_45 + y_51 + y_57 + y_66
   + y_73 + y_77 + y_88 + y_89 >= 1
 c_1_90: y_5 + y_7 + y_10 + y_38 + y_45 + y_67 + y_88 + y_90 + y_93 + y_95
   >= 1
 c_1_91: y_4 + y_10 + y_18 + y_46 + y_66 + y_91 + y_96 >= 1
 c_1_92: y_7 + y_28 + y_65 + y_80 + y_86 + y_92 + y_95 >= 1
 c_1_93: y_5 + y_7 + y_8 + y_35 + y_38 + y_43 + y_45 + y_51 + y_54 + y_64
   + y_77 + y_85 + y_87 + y_88 + y_90 + y_93 + y_95 >= 1
 c_1_94: y_15 + y_24 + y_31 + y_36 + y_48 + y_84 + y_94 >= 1
 c_1_95: y_7 + y_28 + y_38 + y_54 + y_86 + y_88 + y_90 + y_92 + y_93 + y_95
   >= 1
 c_1_96: y_3 + y_4 + y_16 + y_18 + y_23 + y_34 + y_39 + y_46 + y_57 + y_66
   + y_91 + y_96 >= 1
 c_1_97: y_20 + y_27 + y_47 + y_50 + y_61 + y_68 + y_74 + y_79 + y_83
   + y_97 + y_99 >= 1
 c_1_98: y_0 + y_2 + y_20 + y_26 + y_33 + y_44 + y_68 + y_79 + y_98 >= 1
 c_1_99: y_27 + y_35 + y_47 + y_50 + y_61 + y_74 + y_83 + y_85 + y_97
   + y_99 >= 1
Bounds
 Constant = 1
Binaries
 y_0 y_1 y_2 y_3 y_4 y_5 y_6 y_7 y_8 y_9 y_10 y_11 y_12 y_13 y_14 y_15 y_16
 y_17 y_18 y_19 y_20 y_21 y_22 y_23 y_24 y_25 y_26 y_27 y_28 y_29 y_30 y_31
 y_32 y_33 y_34 y_35 y_36 y_37 y_38 y_39 y_40 y_41 y_42 y_43 y_44 y_45 y_46
 y_47 y_48 y_49 y_50 y_51 y_52 y_53 y_54 y_55 y_56 y_57 y_58 y_59 y_60 y_61
 y_62 y_63 y_64 y_65 y_66 y_67 y_68 y_69 y_70 y_71 y_72 y_73 y_74 y_75 y_76
 y_77 y_78 y_79 y_80 y_81 y_82 y_83 y_84 y_85 y_86 y_87 y_88 y_89 y_90 y_91
 y_92 y_93 y_94 y_95 y_96 y_97 y_98 y_99
End
